cpu-bind=MASK - n2lcn0129, task  0  0 [738404]: mask |---BBBB-|--------||--------|--------||--------|--------||--------|--------||||--------|--------||--------|--------||--------|--------||--------|--------|  set
started at Fri Mar 17 08:50:51 CET 2023
Timecheck 10003197.522095963
Set parameter TokenServer to value "license3.uni-paderborn.de"
Warning: Gurobi version mismatch between Python 10.0.1 and C library 10.0.0
Timecheck 10003197.52708704
Timecheck 10003197.527309058
Timecheck 10003197.527340138
Timecheck 10003197.527360888


####################################################################################################
Solve scenario sce_6_26_1 with free vessel operation using the arc flow model
Vessels cannot omit ports, Demands cannot be rejected
####################################################################################################
Data preprocessing, load /upb/departments/pc2/groups/hpc-prf-winf4/dwetzel/SILSRP/inst_final/sce_6_26_1
and create additional sets and parameters
	|- Read vessel information, number of vessels:	17
	|- Read node information, number of nodes:		848
	|- Read arc information
		|- Number of sailing arcs:			9152
		|- Number of transshipment arcs:	1583
	|- Read container information
		|- Number of demands:		4505
		|- Number of empties (+/-):	437/371
	|- Create additional sets and parameters

Data preprocessing took 	00:00:06.663
####################################################################################################
Create linear model
Set parameter Threads to value 4
	|- Create variables, took	00:00:17.196
	|- Create objective, took	00:00:09.594
	|- Create constraints, took	00:00:32.114
	|- Load heuristic start

Creating model took	00:00:58.962
####################################################################################################
Fix start solution

Set parameter TimeLimit to value 3.9811379244692624e+04
Gurobi Optimizer version 10.0.0 build v10.0.0rc2 (linux64)

CPU model: AMD EPYC 7763 64-Core Processor, instruction set [SSE2|AVX|AVX2]
Thread count: 128 physical cores, 128 logical processors, using up to 4 threads

Optimize a model with 424672 rows, 3734886 columns and 11883083 nonzeros
Model fingerprint: 0x1fd75fa0
Variable types: 3573967 continuous, 160919 integer (160919 binary)
Coefficient statistics:
  Matrix range     [1e+00, 4e+06]
  Objective range  [1e+00, 1e+00]
  Bounds range     [1e+00, 5e+02]
  RHS range        [1e+00, 2e+09]
Warning: Model contains large rhs
         Consider reformulating model or setting NumericFocus parameter
         to avoid numerical issues.
Presolve removed 310084 rows and 3449706 columns (presolve time = 5s) ...
Presolve removed 361380 rows and 3542090 columns (presolve time = 10s) ...
Presolve removed 362071 rows and 3542775 columns
Presolve time: 12.29s
Presolved: 62601 rows, 192111 columns, 507533 nonzeros
Variable types: 188414 continuous, 3697 integer (3686 binary)
Deterministic concurrent LP optimizer: primal simplex, dual simplex, and barrier
Showing barrier log only...

Root barrier log...

Ordering time: 0.36s

Barrier statistics:
 AA' NZ     : 3.935e+05
 Factor NZ  : 2.672e+06 (roughly 120 MB of memory)
 Factor Ops : 2.687e+08 (less than 1 second per iteration)
 Threads    : 1

Barrier performed 0 iterations in 14.81 seconds (10.97 work units)
Barrier solve interrupted - model solved by another algorithm

Concurrent spin time: 0.14s (can be avoided by choosing Method=3)

Solved with dual simplex

Root simplex log...

Iteration    Objective       Primal Inf.    Dual Inf.      Time
   15850    1.6948324e+08   0.000000e+00   0.000000e+00     15s
Extra simplex iterations after uncrush: 2

Root relaxation: objective 1.694832e+08, 15850 iterations, 1.19 seconds (0.92 work units)

    Nodes    |    Current Node    |     Objective Bounds      |     Work
 Expl Unexpl |  Obj  Depth IntInf | Incumbent    BestBd   Gap | It/Node Time

     0     0 1.6948e+08    0    3          - 1.6948e+08      -     -   15s
H    0     0                    1.718203e+08 1.6948e+08  1.36%     -   15s
H    0     0                    1.714377e+08 1.6948e+08  1.14%     -   15s
H    0     0                    1.713022e+08 1.6948e+08  1.06%     -   15s
     0     0 1.6961e+08    0    1 1.7130e+08 1.6961e+08  0.99%     -   16s
     0     0 1.6961e+08    0    1 1.7130e+08 1.6961e+08  0.99%     -   18s
H    0     0                    1.705803e+08 1.6961e+08  0.57%     -   18s
     0     0 1.6962e+08    0    1 1.7058e+08 1.6962e+08  0.57%     -   18s
     0     0 1.6963e+08    0    2 1.7058e+08 1.6963e+08  0.56%     -   20s
     0     0 1.6963e+08    0    2 1.7058e+08 1.6963e+08  0.56%     -   20s
     0     0 1.6963e+08    0    2 1.7058e+08 1.6963e+08  0.56%     -   20s
     0     0 1.6963e+08    0    2 1.7058e+08 1.6963e+08  0.56%     -   21s
     0     0 1.6963e+08    0    2 1.7058e+08 1.6963e+08  0.56%     -   21s
     0     0 1.6964e+08    0    1 1.7058e+08 1.6964e+08  0.55%     -   21s
     0     0 1.6964e+08    0    1 1.7058e+08 1.6964e+08  0.55%     -   21s
     0     0 1.6964e+08    0    1 1.7058e+08 1.6964e+08  0.55%     -   23s
H    0     0                    1.705792e+08 1.6964e+08  0.55%     -   23s
     0     0 1.6964e+08    0    1 1.7058e+08 1.6964e+08  0.55%     -   24s
     0     0 1.6964e+08    0    1 1.7058e+08 1.6964e+08  0.55%     -   24s
     0     0 1.6964e+08    0    1 1.7058e+08 1.6964e+08  0.55%     -   24s
     0     0 1.6965e+08    0    1 1.7058e+08 1.6965e+08  0.54%     -   24s
     0     0 1.6965e+08    0    1 1.7058e+08 1.6965e+08  0.54%     -   24s
     0     0 1.6965e+08    0    1 1.7058e+08 1.6965e+08  0.54%     -   24s
     0     0 1.6965e+08    0    1 1.7058e+08 1.6965e+08  0.54%     -   25s
     0     0 1.6965e+08    0    2 1.7058e+08 1.6965e+08  0.54%     -   25s
     0     0 1.6965e+08    0    2 1.7058e+08 1.6965e+08  0.54%     -   25s
     0     0 1.6965e+08    0    2 1.7058e+08 1.6965e+08  0.54%     -   25s
     0     0 1.6966e+08    0    2 1.7058e+08 1.6966e+08  0.54%     -   25s
H    0     0                    1.705095e+08 1.6966e+08  0.50%     -   26s
     0     0 1.6967e+08    0    1 1.7051e+08 1.6967e+08  0.49%     -   26s
     0     0 1.6967e+08    0    1 1.7051e+08 1.6967e+08  0.49%     -   26s
     0     0 1.6968e+08    0    1 1.7051e+08 1.6968e+08  0.48%     -   26s

Cutting planes:
  Gomory: 1
  Cover: 1
  MIR: 1
  Flow cover: 2
  RLT: 4

Explored 1 nodes (16456 simplex iterations) in 27.14 seconds (21.50 work units)
Thread count was 4 (of 128 available processors)

Solution count 5: 1.7051e+08 1.70579e+08 1.71302e+08 ... 1.7182e+08

Optimal solution found (tolerance 1.00e-04)
Best objective 1.705095020000e+08, best bound 1.705095020000e+08, gap 0.0000%

Fixing start solution took	00:01:27.308
####################################################################################################
####################################################################################################
Solve optimization model

Set parameter TimeLimit to value 3.9784071124054492e+04
Gurobi Optimizer version 10.0.0 build v10.0.0rc2 (linux64)

CPU model: AMD EPYC 7763 64-Core Processor, instruction set [SSE2|AVX|AVX2]
Thread count: 128 physical cores, 128 logical processors, using up to 4 threads

Optimize a model with 423825 rows, 3734886 columns and 11882236 nonzeros
Model fingerprint: 0x0259a60f
Variable types: 3573967 continuous, 160919 integer (160919 binary)
Coefficient statistics:
  Matrix range     [1e+00, 4e+06]
  Objective range  [1e+00, 1e+00]
  Bounds range     [1e+00, 5e+02]
  RHS range        [1e+00, 2e+09]
Warning: Model contains large rhs
         Consider reformulating model or setting NumericFocus parameter
         to avoid numerical issues.

Loaded MIP start from previous solve with objective 1.7051e+08

Presolve removed 17095 rows and 22713 columns (presolve time = 5s) ...
Presolve removed 19274 rows and 35323 columns (presolve time = 10s) ...
Presolve removed 19591 rows and 36550 columns (presolve time = 15s) ...
Presolve removed 19654 rows and 36718 columns (presolve time = 20s) ...
Presolve removed 19657 rows and 36718 columns (presolve time = 25s) ...
Presolve removed 19657 rows and 36718 columns (presolve time = 30s) ...
Presolve removed 20381 rows and 53932 columns (presolve time = 35s) ...
Presolve removed 21058 rows and 55180 columns (presolve time = 40s) ...
Presolve removed 21058 rows and 55180 columns (presolve time = 45s) ...
Presolve removed 21058 rows and 55180 columns (presolve time = 50s) ...
Presolve removed 21058 rows and 55180 columns (presolve time = 55s) ...
Presolve removed 21146 rows and 55307 columns
Presolve time: 58.96s
Presolved: 402679 rows, 3679579 columns, 10668260 nonzeros
Variable types: 3530141 continuous, 149438 integer (149438 binary)
Deterministic concurrent LP optimizer: primal simplex, dual simplex, and barrier
Showing barrier log only...

Root barrier log...

Elapsed ordering time = 5s
Elapsed ordering time = 10s
Elapsed ordering time = 15s
Elapsed ordering time = 20s
Elapsed ordering time = 25s
Elapsed ordering time = 30s
Elapsed ordering time = 35s
Elapsed ordering time = 40s
Elapsed ordering time = 45s
Elapsed ordering time = 50s
Elapsed ordering time = 55s
Elapsed ordering time = 60s
Elapsed ordering time = 65s
Elapsed ordering time = 70s
Elapsed ordering time = 75s
Elapsed ordering time = 80s
Elapsed ordering time = 85s
Elapsed ordering time = 90s
Elapsed ordering time = 95s
Elapsed ordering time = 100s
Elapsed ordering time = 105s
Elapsed ordering time = 110s
Elapsed ordering time = 115s
Elapsed ordering time = 120s
Elapsed ordering time = 125s
Elapsed ordering time = 130s
Elapsed ordering time = 135s
Elapsed ordering time = 140s
Elapsed ordering time = 145s
Elapsed ordering time = 150s
Elapsed ordering time = 155s
Elapsed ordering time = 160s
Elapsed ordering time = 165s
Elapsed ordering time = 170s
Elapsed ordering time = 175s
Elapsed ordering time = 180s
Elapsed ordering time = 185s
Elapsed ordering time = 190s
Elapsed ordering time = 195s
Elapsed ordering time = 200s
Elapsed ordering time = 205s
Elapsed ordering time = 210s
Elapsed ordering time = 215s
Elapsed ordering time = 220s
Elapsed ordering time = 225s
Elapsed ordering time = 230s
Elapsed ordering time = 235s
Elapsed ordering time = 240s
Elapsed ordering time = 245s
Ordering time: 247.11s

Barrier statistics:
 AA' NZ     : 1.002e+07
 Factor NZ  : 3.339e+08 (roughly 4.0 GB of memory)
 Factor Ops : 9.593e+11 (roughly 16 seconds per iteration)
 Threads    : 2

                  Objective                Residual
Iter       Primal          Dual         Primal    Dual     Compl     Time
   0   9.61979516e+16 -4.25276649e+16  5.00e+10 5.15e+04  1.87e+14   369s
   1   1.67939707e+16 -9.50432196e+15  8.25e+09 1.04e+05  3.20e+13   395s
   2   1.62919903e+15 -2.39008596e+15  7.99e+08 1.47e+04  3.12e+12   425s
   3   2.71177793e+14 -6.90810826e+14  1.33e+08 1.73e+03  5.23e+11   453s
   4   5.34433031e+13 -2.05272803e+14  2.61e+07 1.75e-08  1.03e+11   481s
   5   5.70173183e+12 -4.94493944e+13  2.78e+06 3.70e-08  1.11e+10   519s
   6   1.84743501e+12 -3.20684044e+13  8.99e+05 2.91e-08  3.62e+09   551s
   7   2.03235255e+11 -2.09957905e+13  9.86e+04 4.82e-08  4.02e+08   585s
   8   5.10917814e+10 -1.84180724e+13  2.48e+04 4.68e-08  1.03e+08   612s
   9   2.97820702e+09 -1.44073037e+13  1.26e+03 3.73e-08  7.07e+06   654s
  10   7.90996203e+08 -6.72711683e+12  1.79e+02 6.19e-08  1.55e+06   705s
  11   4.57706309e+08 -3.73191426e+12  5.01e+01 3.48e-08  6.74e+05   741s
  12   3.40186383e+08 -1.86109317e+12  2.13e+01 5.96e-08  3.21e+05   776s
  13   2.47464764e+08 -5.89324970e+11  5.59e+00 1.38e-07  9.74e+04   833s
  14   1.84723085e+08 -1.35868147e+11  1.01e+00 1.52e-07  2.09e+04   872s
  15   1.54294187e+08 -4.93007915e+10  4.13e-01 1.41e-07  7.24e+03   910s
  16   1.36524014e+08 -3.07183850e+10  1.54e-01 8.82e-08  4.33e+03   947s
  17   1.20512597e+08 -1.34402347e+10  4.15e-02 1.09e-07  1.86e+03   986s
  18   1.07850014e+08 -4.19278326e+09  6.40e-03 6.39e-08  5.85e+02  1020s
  19   9.45454799e+07 -1.31043414e+09  1.23e-03 6.31e-08  1.91e+02  1056s
  20   8.65212095e+07 -7.77430389e+08  6.88e-04 7.18e-08  1.17e+02  1095s
  21   7.85655793e+07 -4.50405672e+08  3.18e-04 7.20e-08  7.19e+01  1132s
  22   7.31252945e+07 -2.33273324e+08  1.80e-04 7.77e-08  4.16e+01  1163s
  23   6.93580650e+07 -1.55381172e+08  1.31e-04 1.02e-07  3.05e+01  1199s
  24   6.54587002e+07 -1.22600930e+08  8.75e-05 1.06e-07  2.55e+01  1231s
  25   6.30945269e+07 -1.05885227e+08  6.63e-05 1.41e-07  2.30e+01  1265s
  26   6.15681068e+07 -9.18407994e+07  5.60e-05 1.31e-07  2.08e+01  1292s
  27   6.07721998e+07 -6.84392407e+07  5.06e-05 1.79e-07  1.76e+01  1323s
  28   5.92224813e+07 -4.27055176e+07  4.22e-05 1.19e-07  1.38e+01  1355s
  29   5.72092338e+07 -2.74290547e+07  3.24e-05 1.79e-07  1.15e+01  1387s
  30   5.53028740e+07 -7.18230013e+06  2.42e-05 1.15e-07  8.49e+00  1428s
  31   5.32257818e+07  8.55198627e+06  1.70e-05 1.49e-07  6.07e+00  1472s
  32   5.16725376e+07  1.98276451e+07  1.27e-05 1.35e-07  4.33e+00  1505s
  33   5.04125742e+07  2.59727067e+07  9.50e-06 1.62e-07  3.32e+00  1552s
  34   4.91307034e+07  3.09772891e+07  6.57e-06 1.99e-07  2.47e+00  1598s
  35   4.82140163e+07  3.39280780e+07  4.79e-06 1.90e-07  1.94e+00  1650s
  36   4.73878016e+07  3.70944893e+07  3.39e-06 1.79e-07  1.40e+00  1691s
  37   4.67628375e+07  3.93133815e+07  2.47e-06 2.09e-07  1.01e+00  1731s
  38   4.63555311e+07  4.02981336e+07  1.94e-06 2.38e-07  8.23e-01  1763s
  39   4.59508313e+07  4.13276132e+07  1.46e-06 2.82e-07  6.28e-01  1805s
  40   4.55522262e+07  4.21408246e+07  1.43e-06 2.71e-07  4.63e-01  1843s
  41   4.52768909e+07  4.26350521e+07  1.02e-06 2.59e-07  3.59e-01  1876s
  42   4.51369399e+07  4.28100696e+07  2.85e-06 2.63e-07  3.16e-01  1912s
  43   4.49177576e+07  4.33040533e+07  2.00e-06 2.31e-07  2.19e-01  1957s
  44   4.47431544e+07  4.35553845e+07  1.34e-06 2.26e-07  1.61e-01  1993s
  45   4.46139206e+07  4.38498188e+07  8.96e-07 1.82e-07  1.04e-01  2030s
  46   4.45009421e+07  4.40497281e+07  1.46e-06 1.91e-07  6.13e-02  2070s
  47   4.44230536e+07  4.41325511e+07  7.54e-07 1.79e-07  3.95e-02  2111s
  48   4.43793692e+07  4.42160599e+07  3.77e-07 1.79e-07  2.22e-02  2154s
  49   4.43534952e+07  4.42947513e+07  1.67e-07 1.79e-07  7.99e-03  2191s
  50   4.43406104e+07  4.43264381e+07  4.83e-08 1.85e-07  1.93e-03  2231s
  51   4.43355553e+07  4.43319100e+07  9.35e-09 2.98e-07  4.96e-04  2269s
  52   4.43343346e+07  4.43335687e+07  4.30e-09 3.77e-06  1.04e-04  2303s
  53   4.43341648e+07  4.43339680e+07  1.86e-08 2.17e-04  2.67e-05  2334s
  54   4.43341557e+07  4.43341091e+07  1.03e-06 1.29e-04  6.34e-06  2362s
  55   4.43341472e+07  4.43341419e+07  2.45e-07 7.71e-04  7.23e-07  2397s
  56   4.43341444e+07  4.43341443e+07  2.96e-06 4.57e-03  1.44e-08  2429s
  57   4.43341444e+07  4.43341443e+07  4.89e-06 1.30e-02  5.55e-09  2467s
  58   4.43341444e+07  4.43341443e+07  4.38e-06 2.61e-03  4.49e-09  2498s

Barrier solved model in 58 iterations and 2498.38 seconds (1630.61 work units)
Optimal objective 4.43341444e+07


Root crossover log...

  377141 DPushes remaining with DInf 1.2195731e-05              2500s
   87240 DPushes remaining with DInf 4.2428428e-03              2508s
   31066 DPushes remaining with DInf 8.9014918e-04              2511s
    4362 DPushes remaining with DInf 3.1860990e-03              2516s
    4216 DPushes remaining with DInf 8.6559769e-05              2524s

   15640 PPushes remaining with PInf 5.8053060e-04              2524s
   14655 PPushes remaining with PInf 5.8053055e-04              2526s
    6948 PPushes remaining with PInf 0.0000000e+00              2530s
Warning: 1 variables dropped from basis

Restart crossover...


  377619 DPushes remaining with DInf 0.0000000e+00              2533s
   87626 DPushes remaining with DInf 1.2541130e-04              2539s
   31355 DPushes remaining with DInf 1.7010680e-04              2542s
    5677 DPushes remaining with DInf 3.9297236e-04              2545s
    4454 DPushes remaining with DInf 9.1402896e-03              2558s
    4394 DPushes remaining with DInf 1.3334345e-02              2569s
    4334 DPushes remaining with DInf 3.0214510e-02              2581s
    4274 DPushes remaining with DInf 4.9310677e-03              2596s
    4216 DPushes remaining with DInf 1.8778333e-04              2604s

   15679 PPushes remaining with PInf 2.7367688e-02              2604s
   14638 PPushes remaining with PInf 2.2408999e-02              2607s
   11803 PPushes remaining with PInf 1.9582085e-02              2610s
    6050 PPushes remaining with PInf 0.0000000e+00              2615s
    1422 PPushes remaining with PInf 0.0000000e+00              2620s
       0 PPushes remaining with PInf 0.0000000e+00              2622s

  Push phase complete: Pinf 0.0000000e+00, Dinf 2.7606790e-06   2622s


Root simplex log...

Iteration    Objective       Primal Inf.    Dual Inf.      Time
  388976    4.4334144e+07   0.000000e+00   0.000000e+00   2623s
Waiting for other threads to finish...        2687s
Waiting for other threads to finish...        2750s
Waiting for other threads to finish...        2813s
Waiting for other threads to finish...        2877s
Waiting for other threads to finish...        2940s
Waiting for other threads to finish...        3003s
Waiting for other threads to finish...        3066s
Waiting for other threads to finish...        3130s
Waiting for other threads to finish...        3193s
Waiting for other threads to finish...        3256s
Waiting for other threads to finish...        3320s
Waiting for other threads to finish...        3411s
Waiting for other threads to finish...        3474s
Concurrent spin time: 885.35s (can be avoided by choosing Method=3)

Solved with barrier
  388976    4.4334144e+07   0.000000e+00   0.000000e+00   3510s

Root relaxation: objective 4.433414e+07, 388976 iterations, 3448.81 seconds (1700.05 work units)
Total elapsed time = 3510.17s
Total elapsed time = 3698.66s
Total elapsed time = 4608.32s

    Nodes    |    Current Node    |     Objective Bounds      |     Work
 Expl Unexpl |  Obj  Depth IntInf | Incumbent    BestBd   Gap | It/Node Time

     0     0 4.4334e+07    0 8973 1.7051e+08 4.4334e+07  74.0%     - 5075s
     0     0 4.4334e+07    0 8662 1.7051e+08 4.4334e+07  74.0%     - 6060s
     0     0          -    0      1.7051e+08 4.4334e+07  74.0%     - 39784s

Cutting planes:
  Gomory: 1
  Cover: 3
  Implied bound: 683
  MIR: 117
  Flow cover: 2472
  RLT: 14
  Relax-and-lift: 116

Explored 1 nodes (5628089 simplex iterations) in 39784.52 seconds (30607.35 work units)
Thread count was 4 (of 128 available processors)

Solution count 1: 1.7051e+08 

Time limit reached
Best objective 1.705095020000e+08, best bound 4.433414434231e+07, gap 73.9990%

Solving took 	11:03:04.574
####################################################################################################
####################################################################################################
####################################################################################################
Reached timelimit, but could find a feasible solution
####################################################################################################
Description                           Value
----------------------------  -------------
Objective (min)               170,509,502.0
Cost sailing                   28,524,193.0
Cost port visits               30,251,376.0
Cost transshipment (demands)    4,120,559.0
Cost transshipment (empties)      937,635.0
Penalty delayed demands         5,624,984.0
Revenue Empties                 5,054,045.0
Penalty rejected demands      106,104,800.0
Rejected demands (%)                   4.61
Omitted ports (%)                       0.0
Gap (%)                                74.0
####################################################################################################
Export solution
####################################################################################################
Overall time 	11:04:41.994

real	664m43.066s
user	796m32.330s
sys	0m42.239s
finished at Fri Mar 17 19:55:34 CET 2023
